10	10
5	7	6	8	8	5	2	5	1	8	4	3	9	8	7	3	3	6	0	2
7	9	2	2	5	9	1	5	3	8	6	8	0	5	4	6	8	5	9	7
4	6	6	5	9	4	8	8	2	5	0	1	3	7	5	2	1	2	7	3
2	8	0	2	8	7	5	1	1	2	3	2	4	1	7	5	6	2	9	3
4	3	5	5	1	6	7	1	8	1	2	6	3	9	9	9	0	5	6	9
9	3	7	5	2	8	5	1	6	9	1	2	4	9	0	1	8	8	3	9
9	2	3	5	6	7	5	7	2	1	7	3	0	4	8	3	4	7	1	8
2	3	3	6	7	6	0	2	6	8	8	2	4	9	5	4	9	4	1	3
2	8	9	2	7	5	1	5	5	7	3	3	0	4	6	4	8	1	4	4
5	2	6	7	0	4	8	2	3	6	2	4	4	9	7	9	1	1	9	9
